************************************************************************
file with basedata            : mm27_.bas
initial value random generator: 1731519007
************************************************************************
projects                      :  1
jobs (incl. supersource/sink ):  12
horizon                       :  88
RESOURCES
  - renewable                 :  2   R
  - nonrenewable              :  2   N
  - doubly constrained        :  0   D
************************************************************************
PROJECT INFORMATION:
pronr.  #jobs rel.date duedate tardcost  MPM-Time
    1     10      0       16        1       16
************************************************************************
PRECEDENCE RELATIONS:
jobnr.    #modes  #successors   successors
   0        1          3           1   2   3
   1        3          2           8   9
   2        3          2           8  10
   3        3          3           4   7   8
   4        3          2           5   6
   5        3          1           9
   6        3          1          10
   7        3          1          10
   8        3          1          11
   9        3          1          11
  10        3          1          11
  11        1          0        
************************************************************************
REQUESTS/DURATIONS:
jobnr. mode duration  R 1  R 2  R 3  R 4  E(W 1)  E(W 2)
------------------------------------------------------------------------
  0      1     0       0    0    0    0     0       0
  1      1     1       0    3    0    5     3       5
  2      1     5       4    0    9    0    20      45
  3      1     1       0    5    0    9     5       9
  4      1     8       0    7    3    0    56      24
  5      1     1       5    0    0    6     5       6
  6      1     3       0    5    8    0    15      24
  7      1     7       5    0    7    0    35      49
  8      1     3       9    0   10    0    27      30
  9      1     4       3    0    0    8    12      32
 10      1     4       4    0    0    8    16      32
 11      1     0       0    0    0    0     0       0
************************************************************************
RESOURCEAVAILABILITIES:
  R 1  R 2
   45   72
************************************************************************
RESOURCE LIMITS:
jobnr.  l(R 1)  u(R 1)  l(R 2)  u(R 2)
------------------------------------------------------------------------
  0        0       0       0       0
  1        2       3       3       5
  2        2       4       5       9
  3        3       5       5       9
  4        4       7       2       3
  5        3       5       3       6
  6        3       5       4       8
  7        3       5       4       7
  8        5       9       5      10
  9        2       3       4       8
 10        2       4       4       8
 11        0       0       0       0
************************************************************************
SCENARIOS:
------------------------------------------------------------------------
RESOURCE k = 1
s = 1: (0, 4, 13, 3, 38, 5, 14, 19, 24, 12, 26, 0)
s = 2: (0, 3, 25, 7, 40, 5, 12, 44, 23, 9, 14, 0)
s = 3: (0, 3, 21, 5, 37, 4, 17, 26, 30, 9, 10, 0)
s = 4: (0, 3, 18, 5, 48, 6, 18, 40, 32, 10, 10, 0)
s = 5: (0, 3, 17, 8, 95, 6, 17, 23, 25, 8, 13, 0)
s = 6: (0, 4, 22, 5, 33, 5, 17, 32, 35, 11, 13, 0)
s = 7: (0, 4, 16, 3, 76, 6, 16, 29, 23, 24, 16, 0)
s = 8: (0, 5, 18, 7, 52, 8, 11, 37, 27, 18, 12, 0)
s = 9: (0, 3, 28, 4, 42, 7, 10, 60, 38, 9, 19, 0)
s = 10: (0, 4, 13, 5, 43, 4, 12, 29, 27, 10, 16, 0)
s = 11: (0, 5, 12, 8, 35, 5, 20, 24, 33, 13, 12, 0)
s = 12: (0, 3, 15, 8, 43, 5, 10, 47, 18, 15, 23, 0)
s = 13: (0, 4, 13, 6, 67, 7, 15, 43, 23, 13, 20, 0)
s = 14: (0, 4, 24, 5, 73, 5, 20, 42, 30, 12, 21, 0)
s = 15: (0, 4, 16, 8, 73, 5, 17, 35, 37, 15, 16, 0)
s = 16: (0, 3, 24, 7, 45, 4, 14, 35, 19, 19, 14, 0)
s = 17: (0, 2, 12, 5, 96, 5, 14, 38, 19, 9, 17, 0)
s = 18: (0, 4, 21, 5, 69, 9, 16, 31, 27, 17, 20, 0)
s = 19: (0, 4, 24, 6, 63, 5, 16, 47, 24, 17, 18, 0)
s = 20: (0, 2, 22, 6, 49, 7, 15, 26, 21, 13, 13, 0)
s = 21: (0, 3, 16, 5, 91, 6, 14, 22, 16, 13, 20, 0)
s = 22: (0, 3, 18, 4, 51, 5, 17, 46, 26, 12, 22, 0)
s = 23: (0, 3, 18, 6, 72, 4, 12, 40, 24, 17, 18, 0)
s = 24: (0, 3, 17, 4, 64, 6, 18, 44, 25, 17, 17, 0)
s = 25: (0, 3, 15, 4, 45, 6, 18, 45, 38, 18, 24, 0)
s = 26: (0, 6, 12, 9, 44, 6, 12, 29, 30, 18, 13, 0)
s = 27: (0, 4, 25, 5, 49, 5, 14, 41, 28, 21, 13, 0)
s = 28: (0, 3, 24, 5, 61, 6, 17, 34, 29, 11, 21, 0)
s = 29: (0, 2, 19, 7, 69, 5, 12, 46, 17, 14, 9, 0)
s = 30: (0, 3, 14, 6, 80, 4, 11, 44, 28, 14, 19, 0)
s = 31: (0, 3, 31, 6, 84, 5, 14, 40, 22, 13, 16, 0)
s = 32: (0, 4, 31, 6, 66, 5, 15, 32, 29, 13, 16, 0)
s = 33: (0, 4, 14, 7, 65, 5, 11, 55, 17, 14, 11, 0)
s = 34: (0, 5, 19, 6, 68, 9, 14, 30, 30, 17, 13, 0)
s = 35: (0, 5, 15, 5, 71, 5, 11, 33, 31, 8, 13, 0)
s = 36: (0, 3, 16, 5, 39, 6, 12, 31, 24, 10, 16, 0)
s = 37: (0, 3, 14, 5, 44, 4, 9, 37, 36, 8, 13, 0)
s = 38: (0, 3, 19, 7, 62, 8, 19, 24, 28, 16, 18, 0)
s = 39: (0, 4, 16, 6, 63, 5, 10, 43, 21, 12, 12, 0)
s = 40: (0, 3, 20, 4, 79, 5, 21, 38, 28, 18, 16, 0)
s = 41: (0, 3, 14, 5, 46, 4, 18, 34, 20, 16, 17, 0)
s = 42: (0, 5, 18, 7, 44, 5, 12, 46, 17, 11, 14, 0)
s = 43: (0, 5, 20, 5, 38, 7, 23, 26, 19, 9, 17, 0)
s = 44: (0, 5, 15, 6, 75, 5, 17, 40, 21, 8, 15, 0)
s = 45: (0, 4, 20, 4, 44, 5, 24, 25, 28, 14, 10, 0)
s = 46: (0, 4, 22, 8, 54, 4, 12, 39, 43, 13, 14, 0)
s = 47: (0, 4, 17, 4, 56, 3, 11, 45, 31, 17, 24, 0)
s = 48: (0, 2, 13, 8, 88, 6, 19, 29, 23, 9, 19, 0)
s = 49: (0, 3, 19, 6, 31, 6, 13, 37, 29, 13, 23, 0)
s = 50: (0, 5, 18, 5, 79, 8, 16, 37, 31, 14, 13, 0)
s = 51: (0, 4, 22, 5, 48, 5, 11, 28, 30, 11, 16, 0)
s = 52: (0, 4, 16, 4, 50, 4, 14, 25, 29, 12, 11, 0)
s = 53: (0, 4, 26, 4, 50, 4, 15, 30, 40, 10, 21, 0)
s = 54: (0, 3, 17, 4, 42, 7, 20, 54, 18, 14, 26, 0)
s = 55: (0, 5, 30, 4, 39, 4, 14, 26, 33, 21, 16, 0)
s = 56: (0, 3, 30, 5, 66, 8, 18, 60, 31, 12, 13, 0)
s = 57: (0, 3, 20, 6, 74, 7, 10, 35, 29, 18, 14, 0)
s = 58: (0, 3, 31, 7, 86, 6, 13, 44, 18, 8, 9, 0)
s = 59: (0, 4, 16, 9, 60, 7, 13, 36, 33, 10, 12, 0)
s = 60: (0, 3, 27, 6, 66, 7, 13, 29, 29, 13, 24, 0)
s = 61: (0, 3, 17, 4, 43, 4, 14, 47, 30, 11, 15, 0)
s = 62: (0, 5, 25, 4, 82, 5, 11, 36, 20, 14, 16, 0)
s = 63: (0, 3, 11, 6, 37, 4, 16, 30, 36, 8, 12, 0)
s = 64: (0, 3, 14, 6, 60, 6, 9, 32, 41, 7, 18, 0)
s = 65: (0, 4, 19, 7, 41, 6, 15, 27, 33, 13, 15, 0)
s = 66: (0, 5, 13, 6, 45, 5, 11, 38, 21, 13, 13, 0)
s = 67: (0, 3, 21, 5, 40, 5, 15, 21, 26, 12, 16, 0)
s = 68: (0, 3, 27, 5, 46, 4, 15, 25, 26, 20, 25, 0)
s = 69: (0, 4, 16, 4, 51, 4, 15, 38, 19, 10, 22, 0)
s = 70: (0, 5, 19, 4, 35, 6, 11, 36, 26, 14, 10, 0)
s = 71: (0, 4, 17, 5, 73, 5, 21, 26, 44, 9, 12, 0)
s = 72: (0, 3, 21, 6, 44, 8, 19, 26, 19, 8, 12, 0)
s = 73: (0, 3, 19, 6, 94, 5, 15, 26, 36, 16, 24, 0)
s = 74: (0, 4, 27, 4, 31, 8, 12, 33, 23, 11, 14, 0)
s = 75: (0, 4, 22, 7, 37, 10, 16, 39, 37, 9, 23, 0)
s = 76: (0, 3, 19, 6, 34, 6, 12, 24, 44, 20, 18, 0)
s = 77: (0, 3, 15, 4, 86, 5, 21, 47, 23, 19, 11, 0)
s = 78: (0, 3, 15, 3, 91, 3, 18, 36, 19, 8, 16, 0)
s = 79: (0, 2, 20, 5, 63, 4, 24, 31, 26, 14, 16, 0)
s = 80: (0, 3, 15, 4, 73, 6, 13, 54, 22, 12, 12, 0)
s = 81: (0, 3, 24, 5, 57, 7, 17, 28, 17, 12, 16, 0)
s = 82: (0, 5, 25, 5, 57, 7, 14, 21, 32, 8, 27, 0)
s = 83: (0, 2, 17, 6, 89, 5, 15, 32, 47, 12, 11, 0)
s = 84: (0, 2, 23, 5, 56, 9, 22, 31, 23, 15, 12, 0)
s = 85: (0, 4, 28, 5, 42, 5, 13, 31, 43, 13, 19, 0)
s = 86: (0, 5, 22, 6, 47, 5, 18, 32, 45, 10, 13, 0)
s = 87: (0, 2, 28, 6, 30, 4, 12, 28, 35, 15, 16, 0)
s = 88: (0, 3, 14, 6, 58, 8, 16, 35, 19, 11, 23, 0)
s = 89: (0, 2, 23, 5, 48, 4, 20, 39, 30, 12, 20, 0)
s = 90: (0, 3, 32, 4, 60, 10, 13, 27, 27, 14, 14, 0)
s = 91: (0, 3, 29, 4, 58, 5, 11, 51, 32, 11, 21, 0)
s = 92: (0, 6, 20, 6, 45, 5, 14, 63, 22, 9, 24, 0)
s = 93: (0, 5, 16, 5, 43, 4, 21, 32, 31, 12, 16, 0)
s = 94: (0, 3, 23, 8, 63, 5, 21, 27, 29, 9, 16, 0)
s = 95: (0, 3, 15, 6, 34, 6, 19, 36, 27, 13, 23, 0)
s = 96: (0, 4, 18, 4, 40, 8, 15, 38, 30, 10, 18, 0)
s = 97: (0, 4, 22, 6, 82, 5, 15, 46, 25, 11, 13, 0)
s = 98: (0, 3, 20, 4, 61, 5, 11, 45, 18, 21, 24, 0)
s = 99: (0, 3, 26, 6, 56, 5, 16, 54, 35, 19, 11, 0)
s = 100: (0, 3, 24, 4, 83, 4, 15, 40, 26, 11, 10, 0)
s = 101: (0, 2, 22, 6, 35, 5, 11, 58, 18, 12, 13, 0)
s = 102: (0, 3, 19, 6, 32, 4, 16, 28, 45, 8, 19, 0)
s = 103: (0, 3, 16, 5, 42, 5, 14, 38, 22, 15, 19, 0)
s = 104: (0, 3, 19, 7, 54, 5, 19, 21, 28, 8, 25, 0)
s = 105: (0, 5, 29, 9, 37, 6, 16, 47, 26, 17, 9, 0)
s = 106: (0, 3, 16, 4, 44, 8, 14, 34, 38, 10, 18, 0)
s = 107: (0, 4, 25, 4, 47, 4, 22, 34, 24, 16, 17, 0)
s = 108: (0, 3, 18, 6, 66, 7, 12, 27, 24, 10, 13, 0)
s = 109: (0, 2, 20, 6, 49, 5, 22, 52, 26, 16, 25, 0)
s = 110: (0, 4, 18, 6, 66, 6, 14, 47, 21, 12, 16, 0)
s = 111: (0, 3, 19, 9, 65, 8, 13, 35, 28, 9, 17, 0)
s = 112: (0, 2, 29, 8, 51, 4, 10, 24, 36, 9, 17, 0)
s = 113: (0, 3, 32, 3, 32, 9, 24, 48, 29, 16, 23, 0)
s = 114: (0, 4, 16, 5, 95, 5, 14, 34, 21, 14, 14, 0)
s = 115: (0, 3, 17, 6, 67, 4, 16, 22, 27, 13, 24, 0)
s = 116: (0, 2, 15, 4, 64, 5, 20, 35, 20, 10, 21, 0)
s = 117: (0, 3, 23, 5, 84, 7, 24, 33, 38, 17, 17, 0)
s = 118: (0, 3, 23, 5, 39, 6, 15, 30, 25, 8, 11, 0)
s = 119: (0, 3, 29, 6, 33, 6, 13, 50, 24, 12, 12, 0)
s = 120: (0, 2, 28, 6, 58, 5, 22, 39, 21, 15, 19, 0)
s = 121: (0, 3, 23, 8, 65, 5, 9, 37, 20, 13, 11, 0)
s = 122: (0, 5, 25, 4, 56, 6, 14, 49, 19, 16, 24, 0)
s = 123: (0, 3, 15, 7, 66, 6, 13, 28, 28, 9, 18, 0)
s = 124: (0, 4, 22, 8, 42, 4, 12, 23, 21, 9, 11, 0)
s = 125: (0, 4, 29, 4, 63, 5, 23, 42, 17, 10, 19, 0)
s = 126: (0, 4, 17, 5, 56, 6, 16, 32, 21, 17, 20, 0)
s = 127: (0, 4, 22, 7, 46, 7, 10, 32, 19, 11, 17, 0)
s = 128: (0, 4, 16, 5, 71, 5, 14, 29, 24, 10, 20, 0)
s = 129: (0, 4, 18, 6, 86, 4, 24, 36, 45, 12, 13, 0)
s = 130: (0, 3, 27, 5, 70, 4, 9, 32, 25, 14, 10, 0)
s = 131: (0, 4, 25, 5, 45, 5, 18, 60, 38, 17, 23, 0)
s = 132: (0, 5, 23, 4, 47, 5, 12, 33, 32, 13, 20, 0)
s = 133: (0, 3, 24, 7, 57, 5, 13, 29, 19, 13, 18, 0)
s = 134: (0, 5, 22, 6, 63, 5, 12, 26, 37, 15, 15, 0)
s = 135: (0, 3, 13, 6, 67, 7, 19, 31, 20, 17, 14, 0)
s = 136: (0, 5, 32, 4, 80, 5, 26, 20, 36, 8, 30, 0)
s = 137: (0, 3, 13, 8, 50, 7, 25, 34, 15, 18, 16, 0)
s = 138: (0, 4, 28, 5, 35, 9, 27, 33, 22, 15, 17, 0)
s = 139: (0, 3, 24, 4, 65, 5, 12, 26, 31, 10, 28, 0)
s = 140: (0, 4, 23, 3, 78, 7, 20, 30, 21, 11, 17, 0)
s = 141: (0, 4, 24, 4, 40, 4, 10, 38, 34, 9, 14, 0)
s = 142: (0, 4, 24, 6, 56, 5, 20, 29, 15, 10, 12, 0)
s = 143: (0, 3, 14, 3, 72, 6, 17, 40, 37, 9, 12, 0)
s = 144: (0, 3, 15, 4, 54, 8, 10, 33, 19, 13, 16, 0)
s = 145: (0, 5, 19, 5, 64, 4, 12, 32, 18, 11, 17, 0)
s = 146: (0, 3, 23, 5, 80, 5, 11, 36, 19, 13, 22, 0)
s = 147: (0, 3, 16, 4, 38, 4, 12, 20, 36, 10, 19, 0)
s = 148: (0, 2, 14, 6, 71, 7, 14, 32, 41, 13, 14, 0)
s = 149: (0, 4, 20, 6, 52, 5, 15, 23, 28, 9, 12, 0)
s = 150: (0, 5, 15, 5, 77, 5, 14, 32, 33, 11, 17, 0)
s = 151: (0, 4, 26, 6, 54, 6, 10, 22, 28, 19, 16, 0)
s = 152: (0, 5, 21, 5, 59, 7, 15, 34, 17, 12, 23, 0)
s = 153: (0, 3, 20, 7, 44, 4, 12, 44, 44, 8, 13, 0)
s = 154: (0, 4, 14, 4, 46, 6, 11, 49, 22, 17, 14, 0)
s = 155: (0, 3, 25, 6, 74, 4, 16, 31, 46, 15, 15, 0)
s = 156: (0, 4, 17, 4, 100, 6, 23, 40, 18, 14, 16, 0)
s = 157: (0, 3, 12, 5, 90, 4, 10, 29, 34, 16, 16, 0)
s = 158: (0, 4, 32, 4, 48, 5, 13, 36, 23, 12, 12, 0)
s = 159: (0, 2, 19, 5, 40, 4, 29, 28, 37, 10, 18, 0)
s = 160: (0, 4, 12, 7, 55, 4, 13, 44, 37, 11, 13, 0)
s = 161: (0, 3, 20, 5, 47, 6, 24, 53, 17, 15, 26, 0)
s = 162: (0, 3, 16, 8, 67, 4, 18, 50, 26, 18, 18, 0)
s = 163: (0, 3, 26, 4, 46, 8, 12, 28, 33, 19, 16, 0)
s = 164: (0, 2, 15, 5, 44, 9, 17, 50, 47, 8, 20, 0)
s = 165: (0, 3, 25, 5, 50, 7, 17, 36, 17, 14, 12, 0)
s = 166: (0, 4, 18, 5, 87, 5, 13, 37, 25, 10, 18, 0)
s = 167: (0, 4, 27, 7, 48, 8, 16, 29, 31, 10, 18, 0)
s = 168: (0, 4, 30, 4, 64, 6, 14, 24, 25, 7, 19, 0)
s = 169: (0, 5, 16, 5, 45, 4, 17, 23, 25, 10, 16, 0)
s = 170: (0, 4, 18, 3, 70, 7, 15, 45, 25, 16, 12, 0)
s = 171: (0, 4, 17, 3, 34, 6, 23, 20, 40, 10, 11, 0)
s = 172: (0, 5, 15, 5, 47, 5, 27, 51, 29, 13, 21, 0)
s = 173: (0, 2, 20, 7, 75, 6, 16, 36, 27, 14, 17, 0)
s = 174: (0, 2, 24, 6, 39, 8, 21, 45, 24, 18, 15, 0)
s = 175: (0, 5, 16, 6, 40, 5, 13, 23, 20, 8, 22, 0)
s = 176: (0, 3, 14, 6, 33, 5, 27, 54, 32, 10, 22, 0)
s = 177: (0, 4, 15, 6, 63, 4, 11, 46, 31, 14, 12, 0)
s = 178: (0, 4, 24, 6, 68, 6, 19, 20, 23, 7, 18, 0)
s = 179: (0, 4, 25, 6, 37, 4, 11, 30, 30, 17, 11, 0)
s = 180: (0, 4, 19, 5, 67, 4, 13, 28, 23, 11, 23, 0)
s = 181: (0, 3, 26, 4, 33, 7, 18, 27, 15, 19, 25, 0)
s = 182: (0, 5, 29, 8, 47, 9, 21, 31, 35, 8, 16, 0)
s = 183: (0, 2, 19, 9, 81, 3, 15, 23, 40, 13, 13, 0)
s = 184: (0, 6, 20, 6, 64, 10, 19, 20, 35, 17, 13, 0)
s = 185: (0, 5, 29, 4, 42, 5, 15, 25, 18, 12, 16, 0)
s = 186: (0, 3, 21, 4, 79, 5, 17, 32, 22, 13, 18, 0)
s = 187: (0, 4, 26, 6, 67, 5, 15, 51, 33, 20, 16, 0)
s = 188: (0, 3, 24, 6, 68, 4, 10, 42, 24, 13, 21, 0)
s = 189: (0, 3, 28, 5, 60, 7, 11, 35, 25, 10, 13, 0)
s = 190: (0, 4, 19, 5, 62, 5, 10, 47, 19, 14, 22, 0)
s = 191: (0, 2, 24, 4, 43, 7, 16, 35, 23, 12, 17, 0)
s = 192: (0, 3, 25, 4, 49, 5, 23, 29, 31, 10, 12, 0)
s = 193: (0, 3, 13, 6, 55, 6, 11, 47, 38, 13, 14, 0)
s = 194: (0, 3, 23, 4, 78, 5, 18, 44, 25, 13, 11, 0)
s = 195: (0, 3, 19, 5, 41, 5, 12, 28, 26, 10, 11, 0)
s = 196: (0, 5, 18, 4, 93, 6, 13, 21, 29, 14, 19, 0)
s = 197: (0, 5, 17, 4, 82, 6, 11, 25, 32, 9, 14, 0)
s = 198: (0, 3, 16, 4, 49, 5, 15, 38, 36, 9, 17, 0)
s = 199: (0, 3, 12, 5, 37, 9, 14, 27, 22, 15, 21, 0)
s = 200: (0, 2, 32, 5, 80, 3, 17, 27, 27, 8, 26, 0)
------------------------------------------------------------------------
RESOURCE k = 2
s = 1: (0, 7, 28, 6, 17, 6, 23, 26, 26, 31, 51, 0)
s = 2: (0, 5, 55, 12, 17, 6, 19, 61, 26, 23, 28, 0)
s = 3: (0, 5, 47, 9, 16, 5, 28, 36, 33, 24, 19, 0)
s = 4: (0, 5, 39, 8, 21, 7, 29, 56, 36, 26, 20, 0)
s = 5: (0, 5, 37, 13, 41, 7, 27, 32, 28, 19, 25, 0)
s = 6: (0, 6, 48, 8, 15, 6, 28, 45, 39, 28, 26, 0)
s = 7: (0, 6, 35, 5, 33, 7, 26, 41, 26, 63, 32, 0)
s = 8: (0, 8, 39, 11, 22, 10, 17, 51, 30, 47, 24, 0)
s = 9: (0, 5, 61, 6, 18, 9, 15, 84, 42, 24, 38, 0)
s = 10: (0, 6, 29, 8, 19, 5, 19, 41, 30, 25, 31, 0)
s = 11: (0, 9, 26, 14, 15, 6, 31, 34, 37, 35, 24, 0)
s = 12: (0, 5, 34, 14, 19, 6, 16, 66, 20, 38, 45, 0)
s = 13: (0, 6, 29, 10, 29, 9, 23, 61, 25, 33, 39, 0)
s = 14: (0, 6, 53, 8, 32, 6, 32, 59, 34, 30, 42, 0)
s = 15: (0, 6, 34, 13, 32, 6, 27, 49, 41, 38, 32, 0)
s = 16: (0, 5, 53, 11, 19, 5, 22, 49, 21, 50, 27, 0)
s = 17: (0, 4, 27, 8, 41, 5, 22, 53, 21, 24, 33, 0)
s = 18: (0, 7, 46, 8, 30, 11, 26, 44, 30, 45, 40, 0)
s = 19: (0, 6, 52, 10, 27, 6, 26, 66, 27, 45, 35, 0)
s = 20: (0, 4, 49, 10, 21, 9, 24, 36, 23, 34, 25, 0)
s = 21: (0, 4, 36, 9, 39, 8, 22, 30, 17, 33, 39, 0)
s = 22: (0, 5, 40, 6, 22, 5, 26, 65, 28, 32, 43, 0)
s = 23: (0, 5, 39, 10, 31, 5, 19, 55, 27, 45, 36, 0)
s = 24: (0, 4, 37, 6, 28, 7, 28, 61, 27, 45, 33, 0)
s = 25: (0, 5, 32, 7, 19, 7, 29, 63, 42, 48, 48, 0)
s = 26: (0, 9, 26, 15, 19, 7, 19, 40, 33, 47, 26, 0)
s = 27: (0, 7, 55, 8, 21, 6, 22, 57, 31, 55, 26, 0)
s = 28: (0, 5, 52, 9, 26, 7, 27, 47, 32, 28, 42, 0)
s = 29: (0, 4, 42, 12, 30, 6, 18, 65, 19, 37, 18, 0)
s = 30: (0, 5, 31, 10, 35, 5, 17, 61, 31, 36, 38, 0)
s = 31: (0, 4, 68, 11, 36, 6, 23, 56, 24, 35, 31, 0)
s = 32: (0, 7, 68, 10, 28, 6, 24, 44, 33, 34, 32, 0)
s = 33: (0, 6, 31, 12, 28, 6, 17, 77, 19, 37, 21, 0)
s = 34: (0, 7, 41, 11, 29, 11, 22, 42, 33, 45, 25, 0)
s = 35: (0, 8, 33, 8, 31, 6, 18, 46, 34, 22, 26, 0)
s = 36: (0, 5, 36, 9, 17, 7, 19, 43, 26, 26, 31, 0)
s = 37: (0, 4, 31, 9, 19, 5, 15, 52, 40, 20, 26, 0)
s = 38: (0, 4, 42, 11, 27, 9, 30, 34, 31, 41, 36, 0)
s = 39: (0, 6, 36, 10, 27, 6, 15, 60, 23, 31, 23, 0)
s = 40: (0, 5, 44, 6, 34, 5, 33, 53, 31, 46, 32, 0)
s = 41: (0, 5, 31, 9, 20, 4, 29, 48, 22, 41, 33, 0)
s = 42: (0, 7, 39, 12, 19, 6, 19, 64, 19, 27, 28, 0)
s = 43: (0, 8, 45, 9, 16, 9, 36, 36, 21, 22, 34, 0)
s = 44: (0, 7, 34, 11, 32, 6, 27, 56, 23, 20, 29, 0)
s = 45: (0, 6, 44, 7, 19, 5, 38, 35, 31, 36, 19, 0)
s = 46: (0, 6, 49, 14, 23, 5, 19, 54, 48, 34, 27, 0)
s = 47: (0, 6, 37, 7, 24, 4, 17, 63, 34, 44, 47, 0)
s = 48: (0, 4, 29, 14, 38, 7, 30, 41, 26, 24, 37, 0)
s = 49: (0, 5, 41, 11, 13, 7, 20, 52, 32, 34, 46, 0)
s = 50: (0, 8, 39, 9, 34, 10, 25, 51, 34, 37, 26, 0)
s = 51: (0, 6, 48, 8, 21, 6, 17, 40, 33, 30, 31, 0)
s = 52: (0, 6, 35, 7, 22, 5, 21, 34, 33, 31, 21, 0)
s = 53: (0, 7, 58, 7, 22, 4, 24, 41, 44, 25, 41, 0)
s = 54: (0, 5, 37, 7, 18, 8, 31, 76, 20, 35, 51, 0)
s = 55: (0, 7, 66, 6, 17, 5, 23, 36, 36, 55, 31, 0)
s = 56: (0, 4, 66, 9, 29, 10, 29, 84, 35, 31, 25, 0)
s = 57: (0, 5, 45, 10, 32, 8, 16, 49, 32, 47, 27, 0)
s = 58: (0, 4, 69, 12, 37, 7, 21, 61, 20, 20, 18, 0)
s = 59: (0, 6, 35, 15, 26, 8, 21, 51, 36, 26, 23, 0)
s = 60: (0, 5, 61, 11, 28, 8, 20, 40, 32, 34, 48, 0)
s = 61: (0, 4, 37, 6, 19, 5, 22, 65, 33, 27, 30, 0)
s = 62: (0, 8, 56, 8, 35, 5, 17, 50, 23, 37, 31, 0)
s = 63: (0, 4, 23, 11, 16, 5, 25, 42, 39, 22, 24, 0)
s = 64: (0, 5, 31, 11, 26, 7, 15, 44, 45, 19, 36, 0)
s = 65: (0, 6, 43, 12, 18, 7, 23, 38, 37, 34, 30, 0)
s = 66: (0, 8, 29, 10, 19, 6, 18, 52, 24, 33, 26, 0)
s = 67: (0, 5, 46, 9, 17, 6, 24, 30, 28, 31, 31, 0)
s = 68: (0, 5, 60, 9, 20, 4, 23, 35, 29, 52, 49, 0)
s = 69: (0, 6, 35, 6, 22, 4, 23, 53, 21, 26, 43, 0)
s = 70: (0, 7, 42, 8, 15, 7, 17, 50, 29, 36, 20, 0)
s = 71: (0, 6, 39, 9, 32, 6, 34, 36, 49, 23, 24, 0)
s = 72: (0, 4, 47, 10, 19, 10, 30, 36, 21, 19, 23, 0)
s = 73: (0, 4, 42, 10, 41, 6, 24, 36, 39, 41, 47, 0)
s = 74: (0, 6, 59, 7, 14, 10, 19, 47, 25, 28, 27, 0)
s = 75: (0, 6, 49, 12, 16, 12, 25, 55, 41, 23, 45, 0)
s = 76: (0, 5, 43, 10, 15, 7, 19, 33, 49, 53, 36, 0)
s = 77: (0, 5, 33, 7, 37, 6, 33, 66, 25, 49, 21, 0)
s = 78: (0, 4, 32, 6, 39, 4, 28, 51, 21, 20, 32, 0)
s = 79: (0, 3, 45, 8, 27, 5, 37, 43, 29, 38, 31, 0)
s = 80: (0, 5, 34, 7, 31, 8, 21, 76, 25, 31, 23, 0)
s = 81: (0, 4, 54, 9, 25, 8, 26, 39, 18, 30, 32, 0)
s = 82: (0, 8, 55, 9, 25, 9, 22, 29, 36, 20, 54, 0)
s = 83: (0, 4, 38, 10, 38, 6, 24, 45, 52, 32, 22, 0)
s = 84: (0, 4, 52, 9, 24, 11, 35, 43, 25, 38, 24, 0)
s = 85: (0, 7, 63, 8, 18, 5, 20, 43, 47, 35, 37, 0)
s = 86: (0, 8, 50, 11, 20, 5, 29, 45, 50, 27, 25, 0)
s = 87: (0, 4, 62, 10, 13, 5, 18, 39, 38, 39, 31, 0)
s = 88: (0, 5, 32, 11, 25, 9, 25, 49, 21, 29, 45, 0)
s = 89: (0, 4, 52, 9, 21, 5, 32, 55, 33, 30, 39, 0)
s = 90: (0, 5, 71, 7, 26, 12, 20, 38, 30, 38, 28, 0)
s = 91: (0, 5, 65, 7, 25, 5, 17, 71, 35, 29, 41, 0)
s = 92: (0, 9, 44, 10, 20, 6, 23, 87, 24, 24, 47, 0)
s = 93: (0, 8, 36, 9, 19, 5, 33, 45, 34, 31, 31, 0)
s = 94: (0, 5, 51, 14, 27, 6, 33, 38, 32, 24, 32, 0)
s = 95: (0, 5, 33, 11, 15, 7, 30, 51, 30, 33, 46, 0)
s = 96: (0, 6, 39, 7, 17, 10, 23, 54, 33, 25, 35, 0)
s = 97: (0, 6, 49, 10, 35, 6, 24, 65, 27, 27, 26, 0)
s = 98: (0, 5, 44, 6, 26, 6, 18, 63, 19, 55, 47, 0)
s = 99: (0, 5, 58, 11, 24, 6, 25, 75, 39, 49, 22, 0)
s = 100: (0, 5, 53, 7, 36, 4, 24, 56, 28, 28, 20, 0)
s = 101: (0, 3, 49, 11, 15, 6, 18, 80, 20, 32, 25, 0)
s = 102: (0, 5, 42, 10, 14, 5, 25, 39, 50, 20, 38, 0)
s = 103: (0, 5, 34, 9, 18, 6, 22, 52, 24, 38, 38, 0)
s = 104: (0, 5, 42, 13, 23, 6, 29, 30, 31, 20, 49, 0)
s = 105: (0, 8, 65, 16, 16, 7, 25, 66, 29, 45, 18, 0)
s = 106: (0, 5, 36, 7, 19, 9, 22, 47, 43, 27, 36, 0)
s = 107: (0, 6, 56, 8, 20, 4, 36, 48, 27, 41, 33, 0)
s = 108: (0, 5, 39, 11, 28, 9, 19, 37, 26, 25, 25, 0)
s = 109: (0, 4, 45, 10, 21, 5, 35, 72, 28, 41, 50, 0)
s = 110: (0, 6, 39, 11, 29, 7, 23, 65, 24, 32, 32, 0)
s = 111: (0, 5, 42, 17, 28, 10, 20, 48, 31, 23, 33, 0)
s = 112: (0, 3, 64, 13, 22, 4, 16, 34, 40, 23, 34, 0)
s = 113: (0, 5, 72, 6, 14, 10, 38, 67, 32, 42, 46, 0)
s = 114: (0, 6, 36, 8, 41, 6, 22, 47, 24, 37, 27, 0)
s = 115: (0, 4, 37, 11, 29, 4, 26, 31, 30, 33, 48, 0)
s = 116: (0, 4, 33, 6, 28, 6, 32, 48, 22, 26, 42, 0)
s = 117: (0, 5, 51, 9, 36, 8, 38, 45, 42, 44, 34, 0)
s = 118: (0, 5, 52, 9, 17, 7, 24, 42, 28, 20, 22, 0)
s = 119: (0, 5, 65, 11, 14, 7, 20, 70, 27, 32, 24, 0)
s = 120: (0, 3, 63, 11, 25, 6, 36, 54, 23, 39, 37, 0)
s = 121: (0, 5, 52, 14, 28, 6, 14, 51, 22, 35, 22, 0)
s = 122: (0, 7, 56, 6, 24, 7, 22, 68, 21, 42, 47, 0)
s = 123: (0, 5, 34, 12, 29, 7, 21, 38, 31, 23, 35, 0)
s = 124: (0, 7, 48, 15, 18, 5, 19, 33, 24, 24, 21, 0)
s = 125: (0, 6, 65, 7, 27, 5, 36, 59, 19, 26, 38, 0)
s = 126: (0, 6, 37, 9, 24, 7, 25, 45, 23, 44, 40, 0)
s = 127: (0, 6, 49, 12, 20, 8, 16, 45, 21, 28, 33, 0)
s = 128: (0, 6, 36, 8, 31, 6, 23, 40, 26, 26, 40, 0)
s = 129: (0, 6, 41, 11, 37, 5, 38, 50, 50, 32, 26, 0)
s = 130: (0, 5, 61, 9, 30, 5, 14, 45, 28, 35, 20, 0)
s = 131: (0, 6, 57, 9, 19, 6, 29, 83, 42, 44, 45, 0)
s = 132: (0, 8, 51, 7, 20, 6, 20, 47, 36, 34, 39, 0)
s = 133: (0, 4, 54, 12, 25, 6, 20, 40, 22, 35, 35, 0)
s = 134: (0, 7, 48, 10, 27, 6, 18, 36, 41, 40, 30, 0)
s = 135: (0, 5, 28, 11, 29, 8, 31, 43, 23, 44, 27, 0)
s = 136: (0, 9, 71, 7, 35, 5, 42, 28, 40, 21, 60, 0)
s = 137: (0, 5, 28, 14, 22, 9, 40, 48, 17, 47, 32, 0)
s = 138: (0, 7, 63, 9, 15, 10, 43, 46, 24, 39, 34, 0)
s = 139: (0, 5, 53, 7, 28, 6, 19, 36, 35, 25, 56, 0)
s = 140: (0, 7, 51, 6, 34, 8, 32, 42, 23, 29, 34, 0)
s = 141: (0, 7, 53, 7, 17, 5, 15, 53, 38, 23, 28, 0)
s = 142: (0, 6, 54, 11, 24, 6, 31, 41, 17, 25, 24, 0)
s = 143: (0, 5, 30, 6, 31, 7, 26, 56, 41, 22, 23, 0)
s = 144: (0, 5, 33, 7, 23, 10, 16, 46, 21, 34, 31, 0)
s = 145: (0, 8, 42, 8, 28, 5, 19, 45, 20, 27, 33, 0)
s = 146: (0, 5, 52, 8, 35, 5, 17, 50, 21, 35, 44, 0)
s = 147: (0, 4, 35, 7, 16, 5, 19, 27, 40, 26, 37, 0)
s = 148: (0, 4, 30, 10, 31, 8, 22, 44, 45, 33, 28, 0)
s = 149: (0, 6, 45, 11, 23, 5, 23, 32, 31, 24, 24, 0)
s = 150: (0, 8, 34, 9, 33, 5, 21, 44, 37, 30, 34, 0)
s = 151: (0, 6, 59, 10, 23, 7, 16, 31, 31, 51, 32, 0)
s = 152: (0, 8, 46, 8, 26, 8, 24, 48, 19, 32, 46, 0)
s = 153: (0, 4, 45, 12, 19, 5, 19, 62, 49, 21, 26, 0)
s = 154: (0, 6, 32, 6, 20, 7, 17, 68, 24, 44, 28, 0)
s = 155: (0, 4, 55, 10, 32, 4, 26, 43, 51, 39, 30, 0)
s = 156: (0, 7, 38, 7, 43, 8, 36, 55, 20, 37, 32, 0)
s = 157: (0, 5, 27, 9, 39, 5, 16, 40, 37, 42, 31, 0)
s = 158: (0, 6, 70, 7, 21, 6, 21, 51, 26, 32, 24, 0)
s = 159: (0, 4, 42, 9, 18, 5, 45, 39, 41, 27, 35, 0)
s = 160: (0, 7, 26, 13, 24, 5, 20, 61, 41, 28, 26, 0)
s = 161: (0, 5, 45, 8, 21, 7, 38, 75, 19, 39, 51, 0)
s = 162: (0, 5, 36, 14, 29, 5, 28, 70, 29, 47, 36, 0)
s = 163: (0, 5, 59, 8, 20, 9, 19, 39, 37, 49, 31, 0)
s = 164: (0, 3, 33, 9, 19, 10, 26, 70, 52, 19, 39, 0)
s = 165: (0, 5, 57, 8, 22, 8, 27, 50, 19, 36, 23, 0)
s = 166: (0, 6, 41, 8, 38, 6, 21, 51, 28, 25, 36, 0)
s = 167: (0, 6, 60, 12, 21, 9, 26, 41, 35, 26, 36, 0)
s = 168: (0, 7, 66, 8, 28, 7, 21, 34, 27, 17, 38, 0)
s = 169: (0, 7, 36, 9, 19, 5, 27, 32, 28, 26, 32, 0)
s = 170: (0, 7, 39, 5, 30, 9, 24, 63, 28, 41, 23, 0)
s = 171: (0, 6, 39, 5, 15, 8, 37, 28, 45, 26, 22, 0)
s = 172: (0, 8, 34, 9, 20, 6, 42, 71, 32, 34, 41, 0)
s = 173: (0, 4, 45, 13, 32, 7, 26, 50, 30, 37, 33, 0)
s = 174: (0, 4, 53, 11, 17, 9, 33, 63, 27, 47, 29, 0)
s = 175: (0, 7, 34, 10, 17, 6, 21, 32, 23, 21, 44, 0)
s = 176: (0, 4, 30, 11, 14, 6, 43, 75, 35, 26, 43, 0)
s = 177: (0, 7, 34, 10, 27, 5, 18, 64, 34, 35, 23, 0)
s = 178: (0, 6, 53, 10, 30, 7, 29, 27, 26, 17, 35, 0)
s = 179: (0, 6, 56, 10, 16, 5, 17, 42, 33, 45, 21, 0)
s = 180: (0, 6, 42, 8, 29, 5, 20, 39, 26, 29, 46, 0)
s = 181: (0, 4, 58, 7, 14, 8, 28, 38, 17, 50, 50, 0)
s = 182: (0, 8, 64, 14, 20, 11, 33, 43, 39, 21, 32, 0)
s = 183: (0, 4, 42, 15, 35, 4, 23, 32, 45, 35, 26, 0)
s = 184: (0, 10, 45, 11, 28, 11, 31, 28, 39, 45, 25, 0)
s = 185: (0, 8, 64, 6, 18, 6, 24, 35, 20, 30, 32, 0)
s = 186: (0, 5, 47, 7, 34, 6, 27, 45, 25, 34, 36, 0)
s = 187: (0, 7, 57, 11, 29, 6, 24, 71, 37, 53, 31, 0)
s = 188: (0, 5, 54, 10, 29, 5, 16, 58, 26, 34, 41, 0)
s = 189: (0, 5, 62, 8, 26, 8, 18, 48, 27, 26, 26, 0)
s = 190: (0, 7, 42, 9, 27, 6, 16, 65, 21, 36, 43, 0)
s = 191: (0, 4, 54, 6, 19, 8, 26, 49, 25, 30, 33, 0)
s = 192: (0, 5, 55, 7, 21, 6, 36, 41, 34, 26, 23, 0)
s = 193: (0, 4, 29, 11, 24, 7, 18, 65, 43, 34, 28, 0)
s = 194: (0, 5, 51, 7, 34, 6, 29, 61, 27, 33, 21, 0)
s = 195: (0, 5, 43, 8, 18, 6, 20, 39, 29, 25, 22, 0)
s = 196: (0, 8, 39, 7, 40, 8, 21, 29, 33, 37, 37, 0)
s = 197: (0, 7, 37, 7, 35, 7, 18, 34, 35, 23, 28, 0)
s = 198: (0, 4, 35, 6, 21, 6, 23, 54, 40, 22, 33, 0)
s = 199: (0, 5, 26, 8, 16, 10, 22, 37, 25, 39, 42, 0)
s = 200: (0, 4, 70, 8, 34, 4, 28, 37, 30, 22, 51, 0)
************************************************************************
ES/LS-VALUES:
jobnr.   ES(i)    LS(i)
------------------------------------------------------------------------
  0        0        0
  1        0       78
  2        0       72
  3        0       57
  4        1       59
  5       15       78
  6       15       74
  7        1       67
  8        8       82
  9       17       80
 10       20       80
 11       27       88
************************************************************************
BIG-M-VALUES:
M1 = 47, M2 = 155
************************************************************************
